(declare-fun _substvar_125_ () Bool)
(declare-fun _substvar_145_ () Bool)
(declare-fun v3 () Bool)
(declare-fun v6 () Bool)
(declare-fun v7 () Bool)
(declare-fun v15 () Bool)
(declare-fun i2 () Int)
(declare-fun i11 () Int)
(push)
(assert (xor v15 (and v3 v6)))
(push)
(check-sat)
(push)
(check-sat)
(assert (> i11 0))
(pop)
(push)
(push)
(check-sat)
(check-sat)
(check-sat)
(push)
(push)
(check-sat)
(push)
(check-sat)
(assert _substvar_125_)
(check-sat)
(push)
(assert (distinct v7 (= 116 i2)))
(check-sat)
(push)
(push)
(push)
(push)
(check-sat)
(assert (or (= 37 (* i11 54)) _substvar_145_))
(check-sat)
(assert false)
(check-sat)
(pop)
(check-sat)
(push)
(check-sat)
